p cnf 105 341
1 2 -3 0
-1 -2 -3 0
1 -2 3 0
-1 2 3 0
-3 -4 -5 0
3 4 -5 0
-3 4 5 0
3 -4 5 0
10 8 0
10 9 0
-8 -9 -10 0
-11 7 0
-11 10 0
-7 -10 11 0
-12 -6 0
-12 11 0
6 -11 12 0
12 -13 -14 0
-12 13 -14 0
12 13 14 0
-12 -13 14 0
5 -14 -15 0
-5 14 -15 0
5 14 15 0
-5 -14 15 0
15 14 -16 0
-15 -14 -16 0
15 -14 16 0
-15 14 16 0
19 -13 0
19 18 0
13 -18 -19 0
20 -17 0
20 -19 0
17 19 -20 0
21 -20 0
21 9 0
20 -9 -21 0
-15 -21 -22 0
15 21 -22 0
-15 21 22 0
15 -21 22 0
-24 2 0
-24 23 0
-2 -23 24 0
25 3 0
25 24 0
-3 -24 -25 0
-25 -18 -26 0
25 18 -26 0
-25 18 26 0
25 -18 26 0
-27 -26 0
-27 5 0
26 -5 27 0
28 22 0
28 -27 0
-22 27 -28 0
-30 17 0
-30 29 0
-17 -29 30 0
-31 -28 0
-31 -30 0
28 30 31 0
16 -31 -32 0
-16 31 -32 0
16 31 32 0
-16 -31 32 0
7 33 0
-7 33 0
34 -1 0
34 -17 0
1 17 -34 0
-35 34 0
-35 -12 0
-34 12 35 0
36 35 0
36 18 0
-35 -18 -36 0
37 -33 0
37 -36 0
33 36 -37 0
32 37 -38 0
-32 -37 -38 0
32 -37 38 0
-32 37 38 0
39 -14 0
39 24 0
14 -24 -39 0
-26 -10 -40 0
26 10 -40 0
-26 10 40 0
26 -10 40 0
41 -40 0
41 -21 0
40 21 -41 0
42 39 0
42 41 0
-39 -41 -42 0
43 -38 0
43 42 0
38 -42 -43 0
-46 -44 0
-46 -45 0
44 45 46 0
46 29 -47 0
-46 -29 -47 0
46 -29 47 0
-46 29 47 0
7 -45 -48 0
-7 45 -48 0
7 45 48 0
-7 -45 48 0
-49 47 0
-49 48 0
-47 -48 49 0
-50 26 0
-50 -40 0
-26 40 50 0
-49 -50 -51 0
49 50 -51 0
-49 50 51 0
49 -50 51 0
52 17 0
52 2 0
-17 -2 -52 0
-53 19 0
-53 -52 0
-19 52 53 0
-54 14 0
-54 -2 0
-14 2 54 0
53 54 -55 0
-53 -54 -55 0
53 -54 55 0
-53 54 55 0
56 -51 0
56 -55 0
51 55 -56 0
57 15 0
57 -12 0
-15 12 -57 0
58 -27 0
58 57 0
27 -57 -58 0
-59 -56 0
-59 -58 0
56 58 59 0
60 47 0
60 10 0
-47 -10 -60 0
13 -2 -61 0
-13 2 -61 0
13 2 61 0
-13 -2 61 0
-60 61 -62 0
60 -61 -62 0
-60 -61 62 0
60 61 62 0
63 59 0
63 62 0
-59 -62 -63 0
64 -43 0
64 63 0
43 -63 -64 0
-48 18 -65 0
48 -18 -65 0
-48 -18 65 0
48 18 65 0
-66 65 0
-66 -19 0
-65 19 66 0
-6 45 -67 0
6 -45 -67 0
-6 -45 67 0
6 45 67 0
68 27 0
68 -67 0
-27 67 -68 0
-69 3 0
-69 -1 0
-3 1 69 0
70 68 0
70 69 0
-68 -69 -70 0
52 -7 -71 0
-52 7 -71 0
52 7 71 0
-52 -7 71 0
24 12 -72 0
-24 -12 -72 0
24 -12 72 0
-24 12 72 0
73 9 0
73 -72 0
-9 72 -73 0
74 71 0
74 -73 0
-71 73 -74 0
75 70 0
75 -74 0
-70 74 -75 0
76 -66 0
76 75 0
66 -75 -76 0
-64 76 -77 0
64 -76 -77 0
-64 -76 77 0
64 76 77 0
-78 72 0
-78 -26 0
-72 26 78 0
17 78 -79 0
-17 -78 -79 0
17 -78 79 0
-17 78 79 0
80 79 0
80 -26 0
-79 26 -80 0
-45 80 -81 0
45 -80 -81 0
-45 -80 81 0
45 80 81 0
-82 -1 0
-82 -9 0
1 9 82 0
84 83 0
84 -11 0
-83 11 -84 0
-82 84 -85 0
82 -84 -85 0
-82 -84 85 0
82 84 85 0
-87 86 0
-87 18 0
-86 -18 87 0
88 85 0
88 -87 0
-85 87 -88 0
89 -29 0
89 40 0
29 -40 -89 0
-89 26 -90 0
89 -26 -90 0
-89 -26 90 0
89 26 90 0
91 88 0
91 90 0
-88 -90 -91 0
-92 -15 0
-92 -65 0
15 65 92 0
-93 35 0
-93 -83 0
-35 83 93 0
94 92 0
94 -93 0
-92 93 -94 0
95 91 0
95 -94 0
-91 94 -95 0
81 -95 -96 0
-81 95 -96 0
81 95 96 0
-81 -95 96 0
77 -96 -97 0
-77 96 -97 0
77 96 97 0
-77 -96 97 0
-98 48 0
-98 23 0
-48 -23 98 0
-97 -98 -99 0
97 98 -99 0
-97 98 99 0
97 -98 99 0
27 -72 -100 0
-27 72 -100 0
27 72 100 0
-27 -72 100 0
-101 52 0
-101 -24 0
-52 24 101 0
-102 -100 0
-102 -101 0
100 101 102 0
-103 -7 0
-103 -24 0
7 24 103 0
-104 102 0
-104 -103 0
-102 103 104 0
-99 -104 -105 0
99 104 -105 0
-99 104 105 0
99 -104 105 0
10 104 7 -58 -1 -105 0
-14 -32 0
56 -61 93 0
-101 88 -41 0
-69 93 0
-61 10 35 83 0
42 -18 -7 29 69 0
-63 -64 78 -68 48 25 0
-82 56 0
-93 -47 0
-49 -68 -28 -61 -93 -9 0
58 73 -61 -85 -88 0
-4 49 -56 -98 -27 0
-35 -16 91 0
74 -2 0
-50 102 -92 53 -25 -42 0
-89 1 -67 0
-70 45 2 27 -14 -53 0
65 -15 78 0
41 -104 89 85 80 0
-2 58 78 -63 -19 0
56 -70 0
67 -23 12 -5 0
-78 101 -4 49 -48 0
61 17 0
-101 -39 0
-29 -93 0
31 -73 60 -20 0
-101 97 0
30 17 68 0
-48 -82 -51 -21 -26 -56 0
-81 72 0
97 -28 27 -90 82 0
65 84 -16 82 -101 90 0
9 45 -27 -57 0
61 -79 0
-75 -44 0
-68 30 14 35 -79 67 0
61 84 31 -99 0
96 98 0
17 40 -54 -30 0
10 85 88 30 83 0
7 -2 -43 0
17 9 -98 23 -104 -93 0
105 0
